This is Ipopt version 3.14.16, running with linear solver MUMPS 5.7.3.

Number of nonzeros in equality constraint Jacobian...:        0
Number of nonzeros in inequality constraint Jacobian.:     1188
Number of nonzeros in Lagrangian Hessian.............:        0

Total number of variables............................:       27
                     variables with only lower bounds:        0
                variables with lower and upper bounds:       27
                     variables with only upper bounds:        0
Total number of equality constraints.................:        0
Total number of inequality constraints...............:       44
        inequality constraints with only lower bounds:        0
   inequality constraints with lower and upper bounds:        0
        inequality constraints with only upper bounds:       44

iter    objective    inf_pr   inf_du lg(mu)  ||d||  lg(rg) alpha_du alpha_pr  ls
   0  3.5405855e-03 3.64e-01 1.00e+00   0.0 0.00e+00    -  0.00e+00 0.00e+00   0
   1  3.5978302e-03 0.00e+00 7.22e-02  -5.8 9.02e-03    -  9.28e-01 1.00e+00h  1
   2  3.5943366e-03 0.00e+00 1.28e-02  -7.0 8.18e-04    -  9.86e-01 1.00e+00h  1
   3  3.5541092e-03 0.00e+00 3.50e-04  -4.5 2.98e-02    -  9.95e-01 1.00e+00h  1
   4  3.4683638e-03 0.00e+00 1.36e-04  -4.9 3.75e-01    -  1.00e+00 9.94e-01H  1
   5  3.3931513e-03 0.00e+00 2.51e-04  -5.6 3.49e-01    -  1.00e+00 9.72e-01h  1
   6  3.3410794e-03 2.07e-03 2.67e-04  -6.5 1.66e-01    -  1.00e+00 1.00e+00h  1
   7  3.4080342e-03 0.00e+00 7.56e-03  -4.8 4.79e-01    -  1.00e+00 6.34e-01h  1
   8  3.3299286e-03 0.00e+00 3.96e-04  -4.9 3.86e-01    -  1.00e+00 1.00e+00h  1
   9  3.3428678e-03 1.86e-01 1.67e-02  -4.5 8.01e-01    -  2.22e-01 1.00e+00h  1
iter    objective    inf_pr   inf_du lg(mu)  ||d||  lg(rg) alpha_du alpha_pr  ls
  10  3.2811911e-03 1.01e-01 8.55e-03  -4.9 6.44e-01    -  1.00e+00 5.79e-01h  1
  11  3.1624452e-03 4.72e-02 1.85e-03  -5.1 7.74e-01    -  1.00e+00 1.00e+00h  1
  12  3.1132683e-03 4.41e-03 1.37e-03  -5.4 1.75e-01    -  1.00e+00 1.00e+00h  1
  13  3.2313541e-03 0.00e+00 8.90e-04  -4.8 3.72e-01    -  8.54e-01 1.00e+00h  1
  14  3.1531192e-03 2.47e-03 3.12e-04  -5.0 1.54e-01    -  1.00e+00 1.00e+00h  1
  15  3.0763964e-03 0.00e+00 3.91e-04  -5.4 2.59e-01    -  9.98e-01 1.00e+00h  1
  16  3.0460369e-03 1.92e-03 5.02e-04  -5.1 5.53e-01    -  1.00e+00 1.00e+00h  1
  17  2.9420064e-03 1.71e-01 6.70e-04  -5.5 7.88e-01    -  9.99e-01 1.00e+00h  1
  18  3.0148707e-03 7.15e-04 2.38e-03  -5.3 9.04e-01    -  1.00e+00 1.00e+00h  1
  19  2.9565002e-03 0.00e+00 1.92e-04  -5.5 4.08e-01    -  1.00e+00 1.00e+00h  1
iter    objective    inf_pr   inf_du lg(mu)  ||d||  lg(rg) alpha_du alpha_pr  ls
  20  2.8952603e-03 8.63e-02 8.22e-04  -6.1 5.27e-01    -  9.99e-01 1.00e+00h  1
  21  2.9102136e-03 2.67e-03 7.64e-04  -5.7 4.41e-01    -  1.00e+00 1.00e+00h  1
  22  2.8944945e-03 0.00e+00 6.80e-04  -6.0 1.85e-01    -  1.00e+00 1.00e+00h  1
  23  2.8871208e-03 0.00e+00 5.27e-04 -11.0 3.79e-01    -  2.51e-01 2.72e-01h  1
  24  2.8732053e-03 1.05e-02 3.30e-04  -7.5 4.52e-01    -  5.47e-01 6.32e-01h  1
  25  2.8743968e-03 2.97e-03 3.92e-04  -6.6 1.57e-01    -  5.56e-01 1.00e+00h  1
  26  2.9119371e-03 3.09e-04 2.62e-03 -11.0 2.07e+00    -  4.06e-02 4.28e-01H  1
  27  2.9114776e-03 5.39e-02 2.79e-03  -6.3 4.41e-01    -  6.02e-01 7.74e-01h  1
  28  2.8957626e-03 5.22e-02 2.29e-03  -6.4 3.87e+00    -  1.34e-02 6.50e-02h  1
  29  2.8830777e-03 2.88e-02 1.21e-03  -6.4 6.15e-01    -  1.03e-01 3.97e-01f  1
iter    objective    inf_pr   inf_du lg(mu)  ||d||  lg(rg) alpha_du alpha_pr  ls
  30  2.8777096e-03 1.19e-02 7.55e-04  -6.4 4.79e+00    -  2.92e-02 2.56e-01f  1
  31  2.8771570e-03 1.63e-02 9.76e-04  -6.4 7.36e+00    -  3.09e-01 7.39e-02f  2
  32  2.8753841e-03 6.74e-03 8.52e-04  -6.4 6.16e+00    -  2.55e-01 3.47e-01h  1
  33  2.8743673e-03 4.53e-03 9.88e-04  -6.4 6.14e-01    -  5.88e-01 2.22e-01h  1
  34  2.8732611e-03 5.41e-03 8.55e-04  -6.4 4.67e-01    -  2.24e-01 7.37e-02h  2
  35  2.8717356e-03 6.99e-03 4.03e-04  -6.4 3.98e-01    -  1.00e+00 5.44e-01h  1
  36  2.8647322e-03 3.49e-03 3.72e-04  -8.1 3.05e-01    -  2.12e-01 1.00e+00h  1
  37  2.8741257e-03 2.41e-03 1.11e-03  -8.1 1.60e-01    -  8.98e-03 9.53e-01H  1
  38  2.8705403e-03 4.25e-02 1.06e-04  -6.4 6.70e-01    -  1.00e+00 1.00e+00h  1
  39  2.8695534e-03 7.52e-03 1.39e-04  -6.5 2.33e-01    -  1.00e+00 1.00e+00h  1
iter    objective    inf_pr   inf_du lg(mu)  ||d||  lg(rg) alpha_du alpha_pr  ls
  40  2.8705903e-03 1.02e-04 4.93e-04  -6.5 1.01e-01    -  1.00e+00 1.00e+00h  1
  41  2.8699538e-03 2.76e-04 2.03e-04  -6.5 1.26e-01    -  5.86e-01 5.00e-01h  2
  42  2.8690075e-03 0.00e+00 1.18e-04  -6.6 5.29e-01    -  5.22e-01 2.89e-01H  1
  43  2.8648052e-03 1.21e-02 8.17e-04  -7.1 9.74e-02    -  5.75e-01 1.00e+00f  1
  44  2.8741521e-03 1.06e-05 1.47e-03  -7.0 4.71e-02    -  9.56e-01 1.00e+00H  1
  45  2.8638492e-03 1.27e-02 3.69e-04  -7.0 1.32e-01    -  3.56e-01 1.00e+00h  1
  46  2.8639553e-03 1.15e-02 3.37e-04 -11.0 5.35e-01    -  2.03e-01 1.97e-01h  1
  47  2.8614679e-03 2.80e-03 1.81e-04  -8.6 4.07e-01    -  7.00e-01 6.90e-01h  1
  48  2.8609742e-03 8.81e-03 2.39e-04 -11.0 4.22e-02    -  1.47e-02 1.62e-01h  2
  49  2.8604884e-03 7.10e-04 1.80e-04  -8.6 9.01e-03    -  1.00e+00 1.00e+00h  1
iter    objective    inf_pr   inf_du lg(mu)  ||d||  lg(rg) alpha_du alpha_pr  ls
  50  2.8664813e-03 0.00e+00 9.53e-04  -8.5 1.45e-02    -  3.93e-01 1.00e+00H  1
  51  2.8602537e-03 8.81e-03 9.02e-05  -8.0 1.61e-02    -  1.00e+00 1.00e+00h  1
  52  2.8607679e-03 6.53e-04 8.16e-05  -7.8 2.65e-02    -  1.00e+00 1.00e+00h  1
  53  2.8634817e-03 0.00e+00 7.24e-04  -7.9 4.76e-03    -  9.63e-01 1.00e+00H  1
  54  2.8603516e-03 5.97e-03 1.01e-05  -8.0 1.19e-02    -  1.00e+00 1.00e+00h  1
  55  2.8602407e-03 0.00e+00 1.89e-05  -9.1 9.22e-03    -  1.00e+00 1.00e+00h  1
  56  2.8631441e-03 3.70e-03 4.58e-04  -7.2 2.07e-01    -  1.00e+00 1.00e+00h  1
  57  2.8617582e-03 7.65e-06 1.29e-04  -7.3 8.14e-02    -  1.00e+00 1.00e+00h  1
  58  2.8617131e-03 0.00e+00 1.01e-04  -7.3 3.23e-02    -  1.85e-01 3.65e-02h  4
  59  2.8617140e-03 0.00e+00 1.29e-04  -7.3 3.39e-02    -  1.00e+00 1.00e+00h  1
iter    objective    inf_pr   inf_du lg(mu)  ||d||  lg(rg) alpha_du alpha_pr  ls
  60  2.8617025e-03 0.00e+00 1.28e-04  -7.3 1.27e-02    -  9.17e-01 4.54e-02h  5
  61  2.8616150e-03 0.00e+00 1.10e-05  -7.3 7.52e-04    -  1.00e+00 1.00e+00h  1
  62  2.8615933e-03 0.00e+00 6.24e-06  -7.3 4.14e-03    -  1.00e+00 1.00e+00h  1

Number of Iterations....: 62

                                   (scaled)                 (unscaled)
Objective...............:   2.8615932712372609e-03    2.8615932712372609e-03
Dual infeasibility......:   6.2436490140752207e-06    6.2436490140752207e-06
Constraint violation....:   0.0000000000000000e+00    0.0000000000000000e+00
Variable bound violation:   0.0000000000000000e+00    0.0000000000000000e+00
Complementarity.........:   4.9453915260310824e-08    4.9453915260310824e-08
Overall NLP error.......:   6.2436490140752207e-06    6.2436490140752207e-06


Number of objective function evaluations             = 93
Number of objective gradient evaluations             = 63
Number of equality constraint evaluations            = 0
Number of inequality constraint evaluations          = 93
Number of equality constraint Jacobian evaluations   = 0
Number of inequality constraint Jacobian evaluations = 63
Number of Lagrangian Hessian evaluations             = 0
Total seconds in IPOPT                               = 22.094

EXIT: Optimal Solution Found.
